NAME : in_house_7_19
TYPE : TSP
DIMENSION : 7
EDGE_WEIGHT_TYPE : EXPLICIT
EDGE_WEIGHT_FORMAT : UPPER_ROW
COMMENT : INVERSION_SHIFT=6
EDGE_WEIGHT_SECTION
17
23
11
30
11
6
28
42
45
47
27
6
26
5
22
9
22
35
37
29
39
